\ENCODING=ISO-8859-1
\Problem name: ilog.cplex

Minimize
 obj: x1_4 + x2_5 + x3_6 + x4_7 + x1_8 + x2_8 + x3_8 + x4_8 + x2_9 + x3_9
      + x4_9 + x3_10 + x4_10 + x1_12 + x2_12 + x3_12 + x4_12 + x2_13 + x3_13
      + x4_13
Subject To
 c1:  x1_4 >= 0
 c2:  x2_5 >= 0
 c3:  x3_6 >= 0
 c4:  x4_7 >= 0
 c5:  x1_8 >= 0
 c6:  x2_8 >= 0
 c7:  x3_8 >= 0
 c8:  x4_8 >= 0
 c9:  x2_9 >= 0
 c10: x3_9 >= 0
 c11: x4_9 >= 0
 c12: x3_10 >= 0
 c13: x4_10 >= 0
 c14: x1_12 >= 0
 c15: x2_12 >= 0
 c16: x3_12 >= 0
 c17: x4_12 >= 0
 c18: x2_13 >= 0
 c19: x3_13 >= 0
 c20: x4_13 >= 0
 c21: s1 >= 0
 c22: s2 >= 0
 c23: s3 >= 0
 c24: s4 >= 0
 c25: s5 >= 0
 c26: s6 >= 0
 c27: s7 >= 0
 c28: s8 >= 0
 c29: s9 >= 0
 c30: s10 >= 0
 c31: x1_4 >= 1
 c32: x2_5 >= 1
 c33: x3_6 >= 1
 c34: x4_7 >= 1
 c35: x1_8 >= 1
 c36: x2_8 >= 1
 c37: x3_8 >= 1
 c38: x4_8 >= 1
 c39: x2_9 >= 1
 c40: x3_9 >= 1
 c41: x4_9 >= 1
 c42: x3_10 >= 1
 c43: x4_10 >= 1
 c44: x1_12 >= 1
 c45: x2_12 >= 1
 c46: x3_12 >= 1
 c47: x4_12 >= 1
 c48: x2_13 >= 1
 c49: x3_13 >= 1
 c50: x4_13 >= 1
 c51: x1_4 - x4_7 - x1_8 + x4_8 >= 0
 c52: - x1_4 + x2_5 + x1_8 - x2_8 >= 0
 c53: - x1_4 + x3_6 + x1_8 - x3_8 >= 0
 c54: - x2_5 + x3_6 + x2_9 - x3_9 >= 0
 c55: x1_4 - x2_5 - x1_8 + x4_8 + x2_9 - x4_9 >= 0
 c56: - x1_4 + x3_6 + 1.5 x1_8 - x4_8 + 0.5 x2_9 - x3_10 + 0.5 x4_12
      - 0.5 x2_13 >= 0
 c57: 0.5 x1_8 + 0.5 x2_9 - x4_10 + 0.5 x4_12 - 0.5 x2_13 >= 0
 c58: 0.5 x1_8 - 0.5 x2_9 - x1_12 + 0.5 x4_12 + 0.5 x2_13 >= 0
 c59: - 0.5 x1_8 + 0.5 x2_9 - x2_12 + 0.5 x4_12 + 0.5 x2_13 >= 0
 c60: - x1_4 + x3_6 + x1_8 - x4_8 - x3_12 + x4_12 >= 0
 c61: - x1_4 + x3_6 + 1.5 x1_8 - x4_8 - 0.5 x2_9 + 0.5 x4_12 + 0.5 x2_13
      - x3_13 >= 0
 c62: 0.5 x1_8 - 0.5 x2_9 + 0.5 x4_12 + 0.5 x2_13 - x4_13 >= 0
 c63: - 0.5 x1_8 + 0.5 x2_9 - 0.5 x4_12 + 0.5 x2_13 >= 0
 c64: - x1_4 + x3_6 + x1_8 - x4_8 >= 0
 c65: x1_4 - x1_8 >= 0
 c66: - x1_4 + x2_5 + x1_8 - x2_9 >= 0
 c67: x1_4 - x2_5 - 1.5 x1_8 + x4_8 + 0.5 x2_9 - 0.5 x4_12 + 0.5 x2_13 >= 0
 c68: 0.5 x1_8 + 0.5 x2_9 - 0.5 x4_12 - 0.5 x2_13 >= 0
 c69: - 0.5 x1_8 + 0.5 x2_9 + 0.5 x4_12 - 0.5 x2_13 >= 0
 c70: 0.5 x1_8 - 0.5 x2_9 + 0.5 x4_12 + 0.5 x2_13 >= 0
 c71: x1_4 - 12 w1  = 0
 c72: x2_5 - 11 w2  = 0
 c73: x3_6 - 10 w3  = 0
 c74: x4_7 - 9 w4  = 0
 c75: x1_8 - 8 w1  = 0
 c76: x2_8 - 8 w2  = 0
 c77: x3_8 - 8 w3  = 0
 c78: x4_8 - 8 w4  = 0
 c79: x2_9 - 7 w2  = 0
 c80: x3_9 - 7 w3  = 0
 c81: x4_9 - 7 w4  = 0
 c82: x3_10 - 6 w3  = 0
 c83: x4_10 - 6 w4  = 0
 c84: x1_12 - 4 w1  = 0
 c85: x2_12 - 4 w2  = 0
 c86: x3_12 - 4 w3  = 0
 c87: x4_12 - 4 w4  = 0
 c88: x2_13 - 3 w2  = 0
 c89: x3_13 - 3 w3  = 0
 c90: x4_13 - 3 w4  = 0
Bounds
 0 <= x1_4 <= 2100000000
 0 <= x2_5 <= 2100000000
 0 <= x3_6 <= 2100000000
 0 <= x4_7 <= 2100000000
 0 <= x1_8 <= 2100000000
 0 <= x2_8 <= 2100000000
 0 <= x3_8 <= 2100000000
 0 <= x4_8 <= 2100000000
 0 <= x2_9 <= 2100000000
 0 <= x3_9 <= 2100000000
 0 <= x4_9 <= 2100000000
 0 <= x3_10 <= 2100000000
 0 <= x4_10 <= 2100000000
 0 <= x1_12 <= 2100000000
 0 <= x2_12 <= 2100000000
 0 <= x3_12 <= 2100000000
 0 <= x4_12 <= 2100000000
 0 <= x2_13 <= 2100000000
 0 <= x3_13 <= 2100000000
 0 <= x4_13 <= 2100000000
 0 <= s1 <= 2100000000
 0 <= s2 <= 2100000000
 0 <= s3 <= 2100000000
 0 <= s4 <= 2100000000
 0 <= s5 <= 2100000000
 0 <= s6 <= 2100000000
 0 <= s7 <= 2100000000
 0 <= s8 <= 2100000000
 0 <= s9 <= 2100000000
 0 <= s10 <= 2100000000
 0 <= w1 <= 2100000000
 0 <= w2 <= 2100000000
 0 <= w3 <= 2100000000
 0 <= w4 <= 2100000000
Generals
 x1_4  x2_5  x3_6  x4_7  x1_8  x2_8  x3_8  x4_8  x2_9  x3_9  x4_9  x3_10 
 x4_10  x1_12  x2_12  x3_12  x4_12  x2_13  x3_13  x4_13  s1  s2  s3  s4  s5 
 s6  s7  s8  s9  s10  w1  w2  w3  w4 
End
